SetGridsize(128, 32, 1)
SetCellsize(500e-9/128, 125e-9/32, 3e-9)

Msat  = 800e3
Aex   = 13e-12
alpha = 0.02

tableAdd(E_total)

tableAdd(E_anis)

tableAdd(E_custom)

tableAdd(E_demag)

tableAdd(E_exch)

tableAdd(E_mel)

tableAdd(E_zeeman)


for B:=0.0e-9; B<=1000.0e-9; B+=10e-9{

    d := (rect(20e-9+B, 20e-9+B))
    setgeom(d)

    m = uniform(0,1,0) 
    save(m) // Minimum energy state

    tablesave() 

}
