SetGridsize(128, 128, 1)
SetCellsize(1070e-9/128, 1070e-9/128, 1070e-9/128)

Msat  = 860e3
Aex   = 13e-10
alpha = 1e-13


defregion(1, ellipse(170e-9, 470e-9).transl(300e-9,0, 0))
defregion(2, ellipse(170e-9, 470e-9).transl(-300e-9,0, 0))
m.setRegion(1, uniform(1, 1, 0))
m.setRegion(2, uniform(-1, -1, 0))

setgeom()


relax()
save(m) // Minimum energy state
B_ext = vector(-24.6E-3, -24.6E-3, 0)
relax()
save(m)    // Field-set state
