SetGridsize(128, 128, 1)
SetCellsize(1070e-9/128, 1070e-9/128, 1070e-9/128)

Msat  = 860e3
Aex   = 13e-10
alpha = 1e-13


c := defregion(1, xrange(0, inf))
d := defregion(2, xrange(-inf, 0)).add(c)
m.setRegion(1, uniform(1, 1, 0))
m.setRegion(2, uniform(1, -1, 0))

setgeom(d)


relax()
save(m) // Minimum energy state
B_ext = vector(-24.6E-3, -24.6E-3, 0)
relax()
save(m)    // Field-set state
